p tw 15 60
1 2
1 11
1 12
1 3
1 4
1 5
1 7
1 8
2 13
2 3
2 4
2 5
2 6
2 8
2 9
11 12
11 15
12 14
12 15
13 14
14 15
3 13
3 14
3 5
3 7
3 8
3 10
4 11
4 12
4 13
4 6
4 7
4 9
5 12
5 14
5 15
5 6
5 8
6 12
6 13
6 14
6 15
6 9
7 11
7 12
7 13
7 14
7 10
8 11
8 15
8 9
8 10
9 11
9 13
9 15
9 10
10 11
10 13
10 14
10 15
